proyfinal/src/viki/013/andrea/andrea-localstore/experimentInOfficeAgust.take6/worker_9/a64c97fb-9402-4ea7-8a64-5ca729ba6c5d.als.cnf.out
Reading from standard input... Use '--help' for help.
============================[ Problem Statistics ]=============================
|                                                                             |
|  Number of variables:         87638                                         |
|  Number of clauses:          161767                                         |
|  Parse time:                   0.03 s                                       |
|                                                                             |
============================[ Search Statistics ]==============================
| Conflicts |          ORIGINAL         |          LEARNT          | Progress |
|           |    Vars  Clauses Literals |    Limit  Clauses Lit/Cl |          |
===============================================================================
|       100 |   61945   103670   258980 |    38012      100     33 | 29.317 % |
|       250 |   61944   103667   258974 |    41813      249     67 | 29.318 % |
|       475 |   61944   103667   258974 |    45994      474     57 | 29.319 % |
|       812 |   61944   103667   258974 |    50594      811     61 | 29.318 % |
|      1318 |   61944   103667   258974 |    55653     1317     76 | 29.318 % |
|      2077 |   61943   103623   258884 |    61219     2073     70 | 29.319 % |
|      3216 |   61925   103549   258713 |    67341     3210     81 | 29.340 % |
|      4924 |   61925   103549   258713 |    74075     4918     84 | 29.340 % |
|      7486 |   61925   103549   258713 |    81482     7480     94 | 29.340 % |
===============================================================================
restarts              : 45
conflicts             : 10120          (6468 /sec)
decisions             : 32345          (0.00 % random) (20671 /sec)
propagations          : 15039468       (9611462 /sec)
conflict literals     : 856477         (53.70 % deleted)
Memory used           : 33.73 MB
CPU time              : 1.56474 s

UNSATISFIABLE
